NAME : amz1230.123439_123439.tour
COMMENT : Cost = 123439_123439
COMMENT : Found by LKH-AMZ [Keld Helsgaun] Sun May 11 13:03:45 2025
COMMENT : TW viol.: 0 #: 0
TYPE : TOUR
DIMENSION : 179
TOUR_SECTION
12
148
55
23
40
18
165
42
19
130
76
2
71
133
32
74
75
139
36
172
85
79
1
111
69
156
129
136
149
146
83
94
43
97
115
145
99
169
176
39
47
116
95
30
20
102
10
110
140
174
119
3
87
22
28
56
109
124
96
160
141
178
78
170
16
158
59
104
177
13
48
122
73
44
49
153
161
33
128
35
57
90
118
107
147
179
54
62
117
143
53
152
163
101
37
92
131
113
61
17
8
106
171
134
6
4
41
162
51
45
67
72
21
125
68
164
166
7
86
112
138
84
121
108
5
26
93
38
150
65
14
15
159
50
157
27
60
77
114
58
63
105
80
81
126
135
142
91
151
70
155
168
89
11
100
64
66
82
154
98
103
123
34
132
167
144
9
137
52
88
173
46
120
29
31
24
127
175
25
-1
EOF
